(set-logic HORN)
(declare-fun assign_34_10_376_abs0123 (Int Int Int Int Int Int Int Int Int Int) Bool)
(declare-fun assert_33_10_367_abs0123 (Int Int Int Int Int Int Int Int Int Int) Bool)
(declare-fun assert_32_3_349_abs0123 (Int Int Int Int Int Int Int Int Int Int) Bool)
(declare-fun assert_31_10_331_abs0123 (Int Int Int Int Int Int Int Int Int Int) Bool)
(declare-fun assert_30_10_298_abs0123 (Int Int Int Int Int Int Int Int Int Int) Bool)
(declare-fun while_29_8_379_abs0123 (Int Int Int Int Int Int Int Int Int Int) Bool)
(declare-fun assign_28_1_257_abs0123 (Int Int Int Int Int Int Int Int Int Int) Bool)
(declare-fun assign_25_5_248_abs0123 (Int Int Int Int Int Int Int Int Int Int) Bool)
(declare-fun arrayassign_24_5_239_abs0123 (Int Int Int Int Int Int Int Int Int Int) Bool)
(declare-fun arrayassign_23_5_225_abs0123 (Int Int Int Int Int Int Int Int Int Int) Bool)
(declare-fun assert_22_12_211_abs0123 (Int Int Int Int Int Int Int Int Int Int) Bool)
(declare-fun assert_21_12_178_abs0123 (Int Int Int Int Int Int Int Int Int Int) Bool)
(declare-fun while_20_1_251_abs0123 (Int Int Int Int Int Int Int Int Int Int) Bool)
(declare-fun assign_19_1_137_abs0123 (Int Int Int Int Int Int Int Int Int Int) Bool)
(declare-fun assign_17_5_128_abs0123 (Int Int Int Int Int Int Int Int Int Int) Bool)
(declare-fun arrayassign_16_12_119_abs0123 (Int Int Int Int Int Int Int Int Int Int) Bool)
(declare-fun arrayassign_15_5_105_abs0123 (Int Int Int Int Int Int Int Int Int Int) Bool)
(declare-fun while_13_1_131_abs0123 (Int Int Int Int Int Int Int Int Int Int) Bool)
(declare-fun assign_12_8_83_abs0123 (Int Int Int Int Int Int Int Int Int Int) Bool)
(declare-fun assign_11_1_77_abs0123 (Int Int Int Int Int Int Int Int Int Int) Bool)
(declare-fun end_abs0123 (Int Int Int Int Int Int Int Int Int Int) Bool)
(declare-fun start_abs0123 (Int Int Int Int Int Int Int Int Int Int) Bool)
(assert (forall ((b_copy (Array Int Int)) (a_copy (Array Int Int)) (b (Array Int Int)) (a (Array Int Int)) (N Int) (i Int) (vabs_f_f Int) (vabs_s_f_f Int) (vabs_s_s_f_f Int) (vabs_s_s_s_f_f Int)) (start_abs0123 vabs_f_f (select b_copy vabs_f_f) vabs_s_f_f (select a_copy vabs_s_f_f) vabs_s_s_f_f (select b vabs_s_s_f_f) vabs_s_s_s_f_f (select a vabs_s_s_s_f_f) N i)))
(assert (forall ((i Int) (N Int) (a (Array Int Int)) (b (Array Int Int)) (a_copy (Array Int Int)) (b_copy (Array Int Int)) (vabs_0_f_f Int) (vabs_0_s_f_f Int) (vabs_0_s_s_f_f Int) (vabs_0_s_s_s_f_f Int)) (=> (start_abs0123 vabs_0_f_f (select b_copy vabs_0_f_f) vabs_0_s_f_f (select a_copy vabs_0_s_f_f) vabs_0_s_s_f_f (select b vabs_0_s_s_f_f) vabs_0_s_s_s_f_f (select a vabs_0_s_s_s_f_f) N i) (assign_11_1_77_abs0123 vabs_0_f_f (select b_copy vabs_0_f_f) vabs_0_s_f_f (select a_copy vabs_0_s_f_f) vabs_0_s_s_f_f (select b vabs_0_s_s_f_f) vabs_0_s_s_s_f_f (select a vabs_0_s_s_s_f_f) N i))))
(assert (forall ((rnd Int) (i Int) (N Int) (a (Array Int Int)) (b (Array Int Int)) (a_copy (Array Int Int)) (b_copy (Array Int Int)) (vabs_0_f_f Int) (vabs_0_s_f_f Int) (vabs_0_s_s_f_f Int) (vabs_0_s_s_s_f_f Int)) (=> (assign_11_1_77_abs0123 vabs_0_f_f (select b_copy vabs_0_f_f) vabs_0_s_f_f (select a_copy vabs_0_s_f_f) vabs_0_s_s_f_f (select b vabs_0_s_s_f_f) vabs_0_s_s_s_f_f (select a vabs_0_s_s_s_f_f) N i) (assign_12_8_83_abs0123 vabs_0_f_f (select b_copy vabs_0_f_f) vabs_0_s_f_f (select a_copy vabs_0_s_f_f) vabs_0_s_s_f_f (select b vabs_0_s_s_f_f) vabs_0_s_s_s_f_f (select a vabs_0_s_s_s_f_f) rnd i))))
(assert (forall ((i Int) (N Int) (a (Array Int Int)) (b (Array Int Int)) (a_copy (Array Int Int)) (b_copy (Array Int Int)) (vabs_0_f_f Int) (vabs_0_s_f_f Int) (vabs_0_s_s_f_f Int) (vabs_0_s_s_s_f_f Int)) (=> (assign_12_8_83_abs0123 vabs_0_f_f (select b_copy vabs_0_f_f) vabs_0_s_f_f (select a_copy vabs_0_s_f_f) vabs_0_s_s_f_f (select b vabs_0_s_s_f_f) vabs_0_s_s_s_f_f (select a vabs_0_s_s_s_f_f) N i) (while_13_1_131_abs0123 vabs_0_f_f (select b_copy vabs_0_f_f) vabs_0_s_f_f (select a_copy vabs_0_s_f_f) vabs_0_s_s_f_f (select b vabs_0_s_s_f_f) vabs_0_s_s_s_f_f (select a vabs_0_s_s_s_f_f) N 0))))
(assert (forall ((b_copy (Array Int Int)) (a_copy (Array Int Int)) (b (Array Int Int)) (a (Array Int Int)) (N Int) (i Int) (vabs_0_f_f Int) (vabs_0_s_f_f Int) (vabs_0_s_s_f_f Int) (vabs_0_s_s_s_f_f Int)) (=> (and (while_13_1_131_abs0123 vabs_0_f_f (select b_copy vabs_0_f_f) vabs_0_s_f_f (select a_copy vabs_0_s_f_f) vabs_0_s_s_f_f (select b vabs_0_s_s_f_f) vabs_0_s_s_s_f_f (select a vabs_0_s_s_s_f_f) N i) (< i N)) (arrayassign_15_5_105_abs0123 vabs_0_f_f (select b_copy vabs_0_f_f) vabs_0_s_f_f (select a_copy vabs_0_s_f_f) vabs_0_s_s_f_f (select b vabs_0_s_s_f_f) vabs_0_s_s_s_f_f (select a vabs_0_s_s_s_f_f) N i))))
(assert (forall ((b_copy (Array Int Int)) (a_copy (Array Int Int)) (b (Array Int Int)) (a (Array Int Int)) (N Int) (i Int) (vabs_0_f_f Int) (vabs_0_s_f_f Int) (vabs_0_s_s_f_f Int) (vabs_0_s_s_s_f_f Int)) (=> (and (while_13_1_131_abs0123 vabs_0_f_f (select b_copy vabs_0_f_f) vabs_0_s_f_f (select a_copy vabs_0_s_f_f) vabs_0_s_s_f_f (select b vabs_0_s_s_f_f) vabs_0_s_s_s_f_f (select a vabs_0_s_s_s_f_f) N i) (not (< i N))) (assign_19_1_137_abs0123 vabs_0_f_f (select b_copy vabs_0_f_f) vabs_0_s_f_f (select a_copy vabs_0_s_f_f) vabs_0_s_s_f_f (select b vabs_0_s_s_f_f) vabs_0_s_s_s_f_f (select a vabs_0_s_s_s_f_f) N i))))
(assert (forall ((i Int) (N Int) (a (Array Int Int)) (b (Array Int Int)) (a_copy (Array Int Int)) (b_copy (Array Int Int)) (vabs_0_f_f Int) (vabs_0_s_f_f Int) (vabs_0_s_s_f_f Int) (vabs_0_s_s_s_f_f Int)) (=> (and (arrayassign_15_5_105_abs0123 vabs_0_f_f (select b_copy vabs_0_f_f) vabs_0_s_f_f (select a_copy vabs_0_s_f_f) vabs_0_s_s_f_f (select b vabs_0_s_s_f_f) vabs_0_s_s_s_f_f (select a vabs_0_s_s_s_f_f) N i) (arrayassign_15_5_105_abs0123 vabs_0_f_f (select b_copy vabs_0_f_f) vabs_0_s_f_f (select a_copy vabs_0_s_f_f) vabs_0_s_s_f_f (select b vabs_0_s_s_f_f) i (select a i) N i)) (arrayassign_16_12_119_abs0123 vabs_0_f_f (select b_copy vabs_0_f_f) vabs_0_s_f_f (select (store a_copy i (select a i)) vabs_0_s_f_f) vabs_0_s_s_f_f (select b vabs_0_s_s_f_f) vabs_0_s_s_s_f_f (select a vabs_0_s_s_s_f_f) N i))))
(assert (forall ((i Int) (N Int) (a (Array Int Int)) (b (Array Int Int)) (a_copy (Array Int Int)) (b_copy (Array Int Int)) (vabs_0_f_f Int) (vabs_0_s_f_f Int) (vabs_0_s_s_f_f Int) (vabs_0_s_s_s_f_f Int)) (=> (and (arrayassign_16_12_119_abs0123 vabs_0_f_f (select b_copy vabs_0_f_f) vabs_0_s_f_f (select a_copy vabs_0_s_f_f) vabs_0_s_s_f_f (select b vabs_0_s_s_f_f) vabs_0_s_s_s_f_f (select a vabs_0_s_s_s_f_f) N i) (arrayassign_16_12_119_abs0123 vabs_0_f_f (select b_copy vabs_0_f_f) vabs_0_s_f_f (select a_copy vabs_0_s_f_f) i (select b i) vabs_0_s_s_s_f_f (select a vabs_0_s_s_s_f_f) N i)) (assign_17_5_128_abs0123 vabs_0_f_f (select (store b_copy i (select b i)) vabs_0_f_f) vabs_0_s_f_f (select a_copy vabs_0_s_f_f) vabs_0_s_s_f_f (select b vabs_0_s_s_f_f) vabs_0_s_s_s_f_f (select a vabs_0_s_s_s_f_f) N i))))
(assert (forall ((i Int) (N Int) (a (Array Int Int)) (b (Array Int Int)) (a_copy (Array Int Int)) (b_copy (Array Int Int)) (vabs_0_f_f Int) (vabs_0_s_f_f Int) (vabs_0_s_s_f_f Int) (vabs_0_s_s_s_f_f Int)) (=> (assign_17_5_128_abs0123 vabs_0_f_f (select b_copy vabs_0_f_f) vabs_0_s_f_f (select a_copy vabs_0_s_f_f) vabs_0_s_s_f_f (select b vabs_0_s_s_f_f) vabs_0_s_s_s_f_f (select a vabs_0_s_s_s_f_f) N i) (while_13_1_131_abs0123 vabs_0_f_f (select b_copy vabs_0_f_f) vabs_0_s_f_f (select a_copy vabs_0_s_f_f) vabs_0_s_s_f_f (select b vabs_0_s_s_f_f) vabs_0_s_s_s_f_f (select a vabs_0_s_s_s_f_f) N (+ i 1)))))
(assert (forall ((i Int) (N Int) (a (Array Int Int)) (b (Array Int Int)) (a_copy (Array Int Int)) (b_copy (Array Int Int)) (vabs_0_f_f Int) (vabs_0_s_f_f Int) (vabs_0_s_s_f_f Int) (vabs_0_s_s_s_f_f Int)) (=> (assign_19_1_137_abs0123 vabs_0_f_f (select b_copy vabs_0_f_f) vabs_0_s_f_f (select a_copy vabs_0_s_f_f) vabs_0_s_s_f_f (select b vabs_0_s_s_f_f) vabs_0_s_s_s_f_f (select a vabs_0_s_s_s_f_f) N i) (while_20_1_251_abs0123 vabs_0_f_f (select b_copy vabs_0_f_f) vabs_0_s_f_f (select a_copy vabs_0_s_f_f) vabs_0_s_s_f_f (select b vabs_0_s_s_f_f) vabs_0_s_s_s_f_f (select a vabs_0_s_s_s_f_f) N 0))))
(assert (forall ((b_copy (Array Int Int)) (a_copy (Array Int Int)) (b (Array Int Int)) (a (Array Int Int)) (N Int) (i Int) (vabs_0_f_f Int) (vabs_0_s_f_f Int) (vabs_0_s_s_f_f Int) (vabs_0_s_s_s_f_f Int)) (=> (and (while_20_1_251_abs0123 vabs_0_f_f (select b_copy vabs_0_f_f) vabs_0_s_f_f (select a_copy vabs_0_s_f_f) vabs_0_s_s_f_f (select b vabs_0_s_s_f_f) vabs_0_s_s_s_f_f (select a vabs_0_s_s_s_f_f) N i) (< i N)) (assert_21_12_178_abs0123 vabs_0_f_f (select b_copy vabs_0_f_f) vabs_0_s_f_f (select a_copy vabs_0_s_f_f) vabs_0_s_s_f_f (select b vabs_0_s_s_f_f) vabs_0_s_s_s_f_f (select a vabs_0_s_s_s_f_f) N i))))
(assert (forall ((b_copy (Array Int Int)) (a_copy (Array Int Int)) (b (Array Int Int)) (a (Array Int Int)) (N Int) (i Int) (vabs_0_f_f Int) (vabs_0_s_f_f Int) (vabs_0_s_s_f_f Int) (vabs_0_s_s_s_f_f Int)) (=> (and (while_20_1_251_abs0123 vabs_0_f_f (select b_copy vabs_0_f_f) vabs_0_s_f_f (select a_copy vabs_0_s_f_f) vabs_0_s_s_f_f (select b vabs_0_s_s_f_f) vabs_0_s_s_s_f_f (select a vabs_0_s_s_s_f_f) N i) (not (< i N))) (assign_28_1_257_abs0123 vabs_0_f_f (select b_copy vabs_0_f_f) vabs_0_s_f_f (select a_copy vabs_0_s_f_f) vabs_0_s_s_f_f (select b vabs_0_s_s_f_f) vabs_0_s_s_s_f_f (select a vabs_0_s_s_s_f_f) N i))))
(assert (forall ((k Int) (i Int) (N Int) (a (Array Int Int)) (b (Array Int Int)) (a_copy (Array Int Int)) (b_copy (Array Int Int))) (=> (and (assert_21_12_178_abs0123 0 (select b_copy 0) k (select a_copy k) k (select b k) 0 (select a 0) N i) (<= 0 k) (< k i)) (= (select a_copy k) (select b k)))))
(assert (forall ((i Int) (N Int) (a (Array Int Int)) (b (Array Int Int)) (a_copy (Array Int Int)) (b_copy (Array Int Int)) (vabs_0_f_f Int) (vabs_0_s_f_f Int) (vabs_0_s_s_f_f Int) (vabs_0_s_s_s_f_f Int)) (=> (assert_21_12_178_abs0123 vabs_0_f_f (select b_copy vabs_0_f_f) vabs_0_s_f_f (select a_copy vabs_0_s_f_f) vabs_0_s_s_f_f (select b vabs_0_s_s_f_f) vabs_0_s_s_s_f_f (select a vabs_0_s_s_s_f_f) N i) (assert_22_12_211_abs0123 vabs_0_f_f (select b_copy vabs_0_f_f) vabs_0_s_f_f (select a_copy vabs_0_s_f_f) vabs_0_s_s_f_f (select b vabs_0_s_s_f_f) vabs_0_s_s_s_f_f (select a vabs_0_s_s_s_f_f) N i))))
(assert (forall ((k Int) (i Int) (N Int) (a (Array Int Int)) (b (Array Int Int)) (a_copy (Array Int Int)) (b_copy (Array Int Int))) (=> (and (assert_22_12_211_abs0123 k (select b_copy k) 0 (select a_copy 0) 0 (select b 0) k (select a k) N i) (<= 0 k) (< k i)) (= (select b_copy k) (select a k)))))
(assert (forall ((i Int) (N Int) (a (Array Int Int)) (b (Array Int Int)) (a_copy (Array Int Int)) (b_copy (Array Int Int)) (vabs_0_f_f Int) (vabs_0_s_f_f Int) (vabs_0_s_s_f_f Int) (vabs_0_s_s_s_f_f Int)) (=> (assert_22_12_211_abs0123 vabs_0_f_f (select b_copy vabs_0_f_f) vabs_0_s_f_f (select a_copy vabs_0_s_f_f) vabs_0_s_s_f_f (select b vabs_0_s_s_f_f) vabs_0_s_s_s_f_f (select a vabs_0_s_s_s_f_f) N i) (arrayassign_23_5_225_abs0123 vabs_0_f_f (select b_copy vabs_0_f_f) vabs_0_s_f_f (select a_copy vabs_0_s_f_f) vabs_0_s_s_f_f (select b vabs_0_s_s_f_f) vabs_0_s_s_s_f_f (select a vabs_0_s_s_s_f_f) N i))))
(assert (forall ((i Int) (N Int) (a (Array Int Int)) (b (Array Int Int)) (a_copy (Array Int Int)) (b_copy (Array Int Int)) (vabs_0_f_f Int) (vabs_0_s_f_f Int) (vabs_0_s_s_f_f Int) (vabs_0_s_s_s_f_f Int)) (=> (and (arrayassign_23_5_225_abs0123 vabs_0_f_f (select b_copy vabs_0_f_f) vabs_0_s_f_f (select a_copy vabs_0_s_f_f) vabs_0_s_s_f_f (select b vabs_0_s_s_f_f) vabs_0_s_s_s_f_f (select a vabs_0_s_s_s_f_f) N i) (arrayassign_23_5_225_abs0123 vabs_0_f_f (select b_copy vabs_0_f_f) vabs_0_s_f_f (select a_copy vabs_0_s_f_f) i (select b i) vabs_0_s_s_s_f_f (select a vabs_0_s_s_s_f_f) N i)) (arrayassign_24_5_239_abs0123 vabs_0_f_f (select b_copy vabs_0_f_f) vabs_0_s_f_f (select (store a_copy i (select b i)) vabs_0_s_f_f) vabs_0_s_s_f_f (select b vabs_0_s_s_f_f) vabs_0_s_s_s_f_f (select a vabs_0_s_s_s_f_f) N i))))
(assert (forall ((i Int) (N Int) (a (Array Int Int)) (b (Array Int Int)) (a_copy (Array Int Int)) (b_copy (Array Int Int)) (vabs_0_f_f Int) (vabs_0_s_f_f Int) (vabs_0_s_s_f_f Int) (vabs_0_s_s_s_f_f Int)) (=> (and (arrayassign_24_5_239_abs0123 vabs_0_f_f (select b_copy vabs_0_f_f) vabs_0_s_f_f (select a_copy vabs_0_s_f_f) vabs_0_s_s_f_f (select b vabs_0_s_s_f_f) vabs_0_s_s_s_f_f (select a vabs_0_s_s_s_f_f) N i) (arrayassign_24_5_239_abs0123 vabs_0_f_f (select b_copy vabs_0_f_f) vabs_0_s_f_f (select a_copy vabs_0_s_f_f) vabs_0_s_s_f_f (select b vabs_0_s_s_f_f) i (select a i) N i)) (assign_25_5_248_abs0123 vabs_0_f_f (select (store b_copy i (select a i)) vabs_0_f_f) vabs_0_s_f_f (select a_copy vabs_0_s_f_f) vabs_0_s_s_f_f (select b vabs_0_s_s_f_f) vabs_0_s_s_s_f_f (select a vabs_0_s_s_s_f_f) N i))))
(assert (forall ((i Int) (N Int) (a (Array Int Int)) (b (Array Int Int)) (a_copy (Array Int Int)) (b_copy (Array Int Int)) (vabs_0_f_f Int) (vabs_0_s_f_f Int) (vabs_0_s_s_f_f Int) (vabs_0_s_s_s_f_f Int)) (=> (assign_25_5_248_abs0123 vabs_0_f_f (select b_copy vabs_0_f_f) vabs_0_s_f_f (select a_copy vabs_0_s_f_f) vabs_0_s_s_f_f (select b vabs_0_s_s_f_f) vabs_0_s_s_s_f_f (select a vabs_0_s_s_s_f_f) N i) (while_20_1_251_abs0123 vabs_0_f_f (select b_copy vabs_0_f_f) vabs_0_s_f_f (select a_copy vabs_0_s_f_f) vabs_0_s_s_f_f (select b vabs_0_s_s_f_f) vabs_0_s_s_s_f_f (select a vabs_0_s_s_s_f_f) N (+ i 1)))))
(assert (forall ((i Int) (N Int) (a (Array Int Int)) (b (Array Int Int)) (a_copy (Array Int Int)) (b_copy (Array Int Int)) (vabs_0_f_f Int) (vabs_0_s_f_f Int) (vabs_0_s_s_f_f Int) (vabs_0_s_s_s_f_f Int)) (=> (assign_28_1_257_abs0123 vabs_0_f_f (select b_copy vabs_0_f_f) vabs_0_s_f_f (select a_copy vabs_0_s_f_f) vabs_0_s_s_f_f (select b vabs_0_s_s_f_f) vabs_0_s_s_s_f_f (select a vabs_0_s_s_s_f_f) N i) (while_29_8_379_abs0123 vabs_0_f_f (select b_copy vabs_0_f_f) vabs_0_s_f_f (select a_copy vabs_0_s_f_f) vabs_0_s_s_f_f (select b vabs_0_s_s_f_f) vabs_0_s_s_s_f_f (select a vabs_0_s_s_s_f_f) N 0))))
(assert (forall ((b_copy (Array Int Int)) (a_copy (Array Int Int)) (b (Array Int Int)) (a (Array Int Int)) (N Int) (i Int) (vabs_0_f_f Int) (vabs_0_s_f_f Int) (vabs_0_s_s_f_f Int) (vabs_0_s_s_s_f_f Int)) (=> (and (while_29_8_379_abs0123 vabs_0_f_f (select b_copy vabs_0_f_f) vabs_0_s_f_f (select a_copy vabs_0_s_f_f) vabs_0_s_s_f_f (select b vabs_0_s_s_f_f) vabs_0_s_s_s_f_f (select a vabs_0_s_s_s_f_f) N i) (< i N)) (assert_30_10_298_abs0123 vabs_0_f_f (select b_copy vabs_0_f_f) vabs_0_s_f_f (select a_copy vabs_0_s_f_f) vabs_0_s_s_f_f (select b vabs_0_s_s_f_f) vabs_0_s_s_s_f_f (select a vabs_0_s_s_s_f_f) N i))))
(assert (forall ((b_copy (Array Int Int)) (a_copy (Array Int Int)) (b (Array Int Int)) (a (Array Int Int)) (N Int) (i Int) (vabs_0_f_f Int) (vabs_0_s_f_f Int) (vabs_0_s_s_f_f Int) (vabs_0_s_s_s_f_f Int)) (=> (and (while_29_8_379_abs0123 vabs_0_f_f (select b_copy vabs_0_f_f) vabs_0_s_f_f (select a_copy vabs_0_s_f_f) vabs_0_s_s_f_f (select b vabs_0_s_s_f_f) vabs_0_s_s_s_f_f (select a vabs_0_s_s_s_f_f) N i) (not (< i N))) (end_abs0123 vabs_0_f_f (select b_copy vabs_0_f_f) vabs_0_s_f_f (select a_copy vabs_0_s_f_f) vabs_0_s_s_f_f (select b vabs_0_s_s_f_f) vabs_0_s_s_s_f_f (select a vabs_0_s_s_s_f_f) N i))))
(assert (forall ((k Int) (i Int) (N Int) (a (Array Int Int)) (b (Array Int Int)) (a_copy (Array Int Int)) (b_copy (Array Int Int))) (=> (and (assert_30_10_298_abs0123 0 (select b_copy 0) k (select a_copy k) k (select b k) 0 (select a 0) N i) (<= 0 k) (< k N)) (= (select a_copy k) (select b k)))))
(assert (forall ((i Int) (N Int) (a (Array Int Int)) (b (Array Int Int)) (a_copy (Array Int Int)) (b_copy (Array Int Int)) (vabs_0_f_f Int) (vabs_0_s_f_f Int) (vabs_0_s_s_f_f Int) (vabs_0_s_s_s_f_f Int)) (=> (assert_30_10_298_abs0123 vabs_0_f_f (select b_copy vabs_0_f_f) vabs_0_s_f_f (select a_copy vabs_0_s_f_f) vabs_0_s_s_f_f (select b vabs_0_s_s_f_f) vabs_0_s_s_s_f_f (select a vabs_0_s_s_s_f_f) N i) (assert_31_10_331_abs0123 vabs_0_f_f (select b_copy vabs_0_f_f) vabs_0_s_f_f (select a_copy vabs_0_s_f_f) vabs_0_s_s_f_f (select b vabs_0_s_s_f_f) vabs_0_s_s_s_f_f (select a vabs_0_s_s_s_f_f) N i))))
(assert (forall ((k Int) (i Int) (N Int) (a (Array Int Int)) (b (Array Int Int)) (a_copy (Array Int Int)) (b_copy (Array Int Int))) (=> (and (assert_31_10_331_abs0123 k (select b_copy k) 0 (select a_copy 0) 0 (select b 0) k (select a k) N i) (<= 0 k) (< k N)) (= (select b_copy k) (select a k)))))
(assert (forall ((i Int) (N Int) (a (Array Int Int)) (b (Array Int Int)) (a_copy (Array Int Int)) (b_copy (Array Int Int)) (vabs_0_f_f Int) (vabs_0_s_f_f Int) (vabs_0_s_s_f_f Int) (vabs_0_s_s_s_f_f Int)) (=> (assert_31_10_331_abs0123 vabs_0_f_f (select b_copy vabs_0_f_f) vabs_0_s_f_f (select a_copy vabs_0_s_f_f) vabs_0_s_s_f_f (select b vabs_0_s_s_f_f) vabs_0_s_s_s_f_f (select a vabs_0_s_s_s_f_f) N i) (assert_32_3_349_abs0123 vabs_0_f_f (select b_copy vabs_0_f_f) vabs_0_s_f_f (select a_copy vabs_0_s_f_f) vabs_0_s_s_f_f (select b vabs_0_s_s_f_f) vabs_0_s_s_s_f_f (select a vabs_0_s_s_s_f_f) N i))))
(assert (forall ((i Int) (N Int) (a (Array Int Int)) (b (Array Int Int)) (a_copy (Array Int Int)) (b_copy (Array Int Int))) (=> (assert_32_3_349_abs0123 i (select b_copy i) 0 (select a_copy 0) 0 (select b 0) i (select a i) N i) (= (select a i) (select b_copy i)))))
(assert (forall ((i Int) (N Int) (a (Array Int Int)) (b (Array Int Int)) (a_copy (Array Int Int)) (b_copy (Array Int Int)) (vabs_0_f_f Int) (vabs_0_s_f_f Int) (vabs_0_s_s_f_f Int) (vabs_0_s_s_s_f_f Int)) (=> (assert_32_3_349_abs0123 vabs_0_f_f (select b_copy vabs_0_f_f) vabs_0_s_f_f (select a_copy vabs_0_s_f_f) vabs_0_s_s_f_f (select b vabs_0_s_s_f_f) vabs_0_s_s_s_f_f (select a vabs_0_s_s_s_f_f) N i) (assert_33_10_367_abs0123 vabs_0_f_f (select b_copy vabs_0_f_f) vabs_0_s_f_f (select a_copy vabs_0_s_f_f) vabs_0_s_s_f_f (select b vabs_0_s_s_f_f) vabs_0_s_s_s_f_f (select a vabs_0_s_s_s_f_f) N i))))
(assert (forall ((i Int) (N Int) (a (Array Int Int)) (b (Array Int Int)) (a_copy (Array Int Int)) (b_copy (Array Int Int))) (=> (assert_33_10_367_abs0123 0 (select b_copy 0) i (select a_copy i) i (select b i) 0 (select a 0) N i) (= (select b i) (select a_copy i)))))
(assert (forall ((i Int) (N Int) (a (Array Int Int)) (b (Array Int Int)) (a_copy (Array Int Int)) (b_copy (Array Int Int)) (vabs_0_f_f Int) (vabs_0_s_f_f Int) (vabs_0_s_s_f_f Int) (vabs_0_s_s_s_f_f Int)) (=> (assert_33_10_367_abs0123 vabs_0_f_f (select b_copy vabs_0_f_f) vabs_0_s_f_f (select a_copy vabs_0_s_f_f) vabs_0_s_s_f_f (select b vabs_0_s_s_f_f) vabs_0_s_s_s_f_f (select a vabs_0_s_s_s_f_f) N i) (assign_34_10_376_abs0123 vabs_0_f_f (select b_copy vabs_0_f_f) vabs_0_s_f_f (select a_copy vabs_0_s_f_f) vabs_0_s_s_f_f (select b vabs_0_s_s_f_f) vabs_0_s_s_s_f_f (select a vabs_0_s_s_s_f_f) N i))))
(assert (forall ((i Int) (N Int) (a (Array Int Int)) (b (Array Int Int)) (a_copy (Array Int Int)) (b_copy (Array Int Int)) (vabs_0_f_f Int) (vabs_0_s_f_f Int) (vabs_0_s_s_f_f Int) (vabs_0_s_s_s_f_f Int)) (=> (assign_34_10_376_abs0123 vabs_0_f_f (select b_copy vabs_0_f_f) vabs_0_s_f_f (select a_copy vabs_0_s_f_f) vabs_0_s_s_f_f (select b vabs_0_s_s_f_f) vabs_0_s_s_s_f_f (select a vabs_0_s_s_s_f_f) N i) (while_29_8_379_abs0123 vabs_0_f_f (select b_copy vabs_0_f_f) vabs_0_s_f_f (select a_copy vabs_0_s_f_f) vabs_0_s_s_f_f (select b vabs_0_s_s_f_f) vabs_0_s_s_s_f_f (select a vabs_0_s_s_s_f_f) N (+ i 1)))))
(check-sat)